c [ 1 2 3 4 5 6 7 8 9 10 ]
c r=8.000 p0=0.080
p cnf 10 80
-5 1 10 0
-10 7 -6 0
-4 5 -6 0
2 -6 7 0
-4 9 -3 0
-8 -10 5 0
-7 -2 9 0
-2 -7 5 0
-8 7 5 0
4 -6 -2 0
10 -9 -7 0
8 -2 -9 0
8 -7 -9 0
8 -3 9 0
5 -7 1 0
9 -6 8 0
8 10 4 0
-10 4 -1 0
-6 7 -1 0
1 9 10 0
-7 3 -10 0
7 6 -9 0
-2 10 6 0
-8 -6 7 0
6 -3 -4 0
-4 6 8 0
-6 10 -3 0
9 -7 2 0
3 -5 7 0
4 -9 -2 0
7 -8 3 0
-2 -5 3 0
2 9 4 0
-6 -10 9 0
-7 -3 8 0
-8 -7 6 0
-2 5 10 0
5 1 -3 0
9 -3 4 0
6 -1 4 0
-5 2 -1 0
-3 7 10 0
-10 -7 2 0
1 -2 7 0
-3 -4 1 0
6 5 10 0
-5 10 2 0
-3 -6 8 0
-7 5 4 0
2 -1 3 0
5 -9 -7 0
-9 -7 5 0
3 8 5 0
1 -8 -3 0
9 8 1 0
1 -10 -6 0
4 -3 -6 0
6 3 7 0
5 8 3 0
-1 -6 5 0
2 -10 -6 0
5 -9 -1 0
-8 2 -9 0
2 -3 -10 0
5 -8 -2 0
7 -5 3 0
4 -5 -1 0
-1 -4 9 0
-6 -7 5 0
-3 8 -6 0
-2 1 -4 0
-5 -3 4 0
-8 6 2 0
9 -2 7 0
-2 6 -3 0
-10 -2 4 0
8 5 -1 0
-6 -7 9 0
-8 -9 3 0
5 -4 -6 0
